
%    +---------------+
% 10 | | | | | | | | |
% 9  | | | | | | | | |
% 8  | | | | | | | | |
% 7  | | | | | | | | |
% 6  | | | | | | | | |
% 5  | | | | | | | | |
% 4  | |2| | | |4| | |
% 3  | | |1|1| | | | |
% 2  | | |1|1| |3| | |
% 1  | | | | | | | | |
%    +---------------+
n=8;
m=10;
h=2;
%maxT=30;
boxNumber=4;
boxSideLen = [2, 1, 1, 1];
boxStartX  = [3, 2, 6, 6];
boxStartY  = [2, 4, 2, 4];
